p edge 120 1680
e 1 2
e 1 3
e 1 4
e 1 5
e 1 7
e 1 8
e 1 11
e 1 12
e 1 16
e 1 17
e 1 22
e 1 23
e 1 29
e 1 30
e 1 37
e 1 38
e 1 46
e 1 47
e 1 56
e 1 57
e 1 67
e 1 68
e 1 79
e 1 80
e 1 92
e 1 93
e 1 106
e 1 107
e 2 3
e 2 4
e 2 6
e 2 7
e 2 9
e 2 11
e 2 13
e 2 16
e 2 18
e 2 22
e 2 24
e 2 29
e 2 31
e 2 37
e 2 39
e 2 46
e 2 48
e 2 56
e 2 58
e 2 67
e 2 69
e 2 79
e 2 81
e 2 92
e 2 94
e 2 106
e 2 108
e 3 5
e 3 6
e 3 8
e 3 9
e 3 12
e 3 13
e 3 17
e 3 18
e 3 23
e 3 24
e 3 30
e 3 31
e 3 38
e 3 39
e 3 47
e 3 48
e 3 57
e 3 58
e 3 68
e 3 69
e 3 80
e 3 81
e 3 93
e 3 94
e 3 107
e 3 108
e 4 5
e 4 6
e 4 7
e 4 10
e 4 11
e 4 14
e 4 16
e 4 19
e 4 22
e 4 25
e 4 29
e 4 32
e 4 37
e 4 40
e 4 46
e 4 49
e 4 56
e 4 59
e 4 67
e 4 70
e 4 79
e 4 82
e 4 92
e 4 95
e 4 106
e 4 109
e 5 6
e 5 8
e 5 10
e 5 12
e 5 14
e 5 17
e 5 19
e 5 23
e 5 25
e 5 30
e 5 32
e 5 38
e 5 40
e 5 47
e 5 49
e 5 57
e 5 59
e 5 68
e 5 70
e 5 80
e 5 82
e 5 93
e 5 95
e 5 107
e 5 109
e 6 9
e 6 10
e 6 13
e 6 14
e 6 18
e 6 19
e 6 24
e 6 25
e 6 31
e 6 32
e 6 39
e 6 40
e 6 48
e 6 49
e 6 58
e 6 59
e 6 69
e 6 70
e 6 81
e 6 82
e 6 94
e 6 95
e 6 108
e 6 109
e 7 8
e 7 9
e 7 10
e 7 11
e 7 15
e 7 16
e 7 20
e 7 22
e 7 26
e 7 29
e 7 33
e 7 37
e 7 41
e 7 46
e 7 50
e 7 56
e 7 60
e 7 67
e 7 71
e 7 79
e 7 83
e 7 92
e 7 96
e 7 106
e 7 110
e 8 9
e 8 10
e 8 12
e 8 15
e 8 17
e 8 20
e 8 23
e 8 26
e 8 30
e 8 33
e 8 38
e 8 41
e 8 47
e 8 50
e 8 57
e 8 60
e 8 68
e 8 71
e 8 80
e 8 83
e 8 93
e 8 96
e 8 107
e 8 110
e 9 10
e 9 13
e 9 15
e 9 18
e 9 20
e 9 24
e 9 26
e 9 31
e 9 33
e 9 39
e 9 41
e 9 48
e 9 50
e 9 58
e 9 60
e 9 69
e 9 71
e 9 81
e 9 83
e 9 94
e 9 96
e 9 108
e 9 110
e 10 14
e 10 15
e 10 19
e 10 20
e 10 25
e 10 26
e 10 32
e 10 33
e 10 40
e 10 41
e 10 49
e 10 50
e 10 59
e 10 60
e 10 70
e 10 71
e 10 82
e 10 83
e 10 95
e 10 96
e 10 109
e 10 110
e 11 12
e 11 13
e 11 14
e 11 15
e 11 16
e 11 21
e 11 22
e 11 27
e 11 29
e 11 34
e 11 37
e 11 42
e 11 46
e 11 51
e 11 56
e 11 61
e 11 67
e 11 72
e 11 79
e 11 84
e 11 92
e 11 97
e 11 106
e 11 111
e 12 13
e 12 14
e 12 15
e 12 17
e 12 21
e 12 23
e 12 27
e 12 30
e 12 34
e 12 38
e 12 42
e 12 47
e 12 51
e 12 57
e 12 61
e 12 68
e 12 72
e 12 80
e 12 84
e 12 93
e 12 97
e 12 107
e 12 111
e 13 14
e 13 15
e 13 18
e 13 21
e 13 24
e 13 27
e 13 31
e 13 34
e 13 39
e 13 42
e 13 48
e 13 51
e 13 58
e 13 61
e 13 69
e 13 72
e 13 81
e 13 84
e 13 94
e 13 97
e 13 108
e 13 111
e 14 15
e 14 19
e 14 21
e 14 25
e 14 27
e 14 32
e 14 34
e 14 40
e 14 42
e 14 49
e 14 51
e 14 59
e 14 61
e 14 70
e 14 72
e 14 82
e 14 84
e 14 95
e 14 97
e 14 109
e 14 111
e 15 20
e 15 21
e 15 26
e 15 27
e 15 33
e 15 34
e 15 41
e 15 42
e 15 50
e 15 51
e 15 60
e 15 61
e 15 71
e 15 72
e 15 83
e 15 84
e 15 96
e 15 97
e 15 110
e 15 111
e 16 17
e 16 18
e 16 19
e 16 20
e 16 21
e 16 22
e 16 28
e 16 29
e 16 35
e 16 37
e 16 43
e 16 46
e 16 52
e 16 56
e 16 62
e 16 67
e 16 73
e 16 79
e 16 85
e 16 92
e 16 98
e 16 106
e 16 112
e 17 18
e 17 19
e 17 20
e 17 21
e 17 23
e 17 28
e 17 30
e 17 35
e 17 38
e 17 43
e 17 47
e 17 52
e 17 57
e 17 62
e 17 68
e 17 73
e 17 80
e 17 85
e 17 93
e 17 98
e 17 107
e 17 112
e 18 19
e 18 20
e 18 21
e 18 24
e 18 28
e 18 31
e 18 35
e 18 39
e 18 43
e 18 48
e 18 52
e 18 58
e 18 62
e 18 69
e 18 73
e 18 81
e 18 85
e 18 94
e 18 98
e 18 108
e 18 112
e 19 20
e 19 21
e 19 25
e 19 28
e 19 32
e 19 35
e 19 40
e 19 43
e 19 49
e 19 52
e 19 59
e 19 62
e 19 70
e 19 73
e 19 82
e 19 85
e 19 95
e 19 98
e 19 109
e 19 112
e 20 21
e 20 26
e 20 28
e 20 33
e 20 35
e 20 41
e 20 43
e 20 50
e 20 52
e 20 60
e 20 62
e 20 71
e 20 73
e 20 83
e 20 85
e 20 96
e 20 98
e 20 110
e 20 112
e 21 27
e 21 28
e 21 34
e 21 35
e 21 42
e 21 43
e 21 51
e 21 52
e 21 61
e 21 62
e 21 72
e 21 73
e 21 84
e 21 85
e 21 97
e 21 98
e 21 111
e 21 112
e 22 23
e 22 24
e 22 25
e 22 26
e 22 27
e 22 28
e 22 29
e 22 36
e 22 37
e 22 44
e 22 46
e 22 53
e 22 56
e 22 63
e 22 67
e 22 74
e 22 79
e 22 86
e 22 92
e 22 99
e 22 106
e 22 113
e 23 24
e 23 25
e 23 26
e 23 27
e 23 28
e 23 30
e 23 36
e 23 38
e 23 44
e 23 47
e 23 53
e 23 57
e 23 63
e 23 68
e 23 74
e 23 80
e 23 86
e 23 93
e 23 99
e 23 107
e 23 113
e 24 25
e 24 26
e 24 27
e 24 28
e 24 31
e 24 36
e 24 39
e 24 44
e 24 48
e 24 53
e 24 58
e 24 63
e 24 69
e 24 74
e 24 81
e 24 86
e 24 94
e 24 99
e 24 108
e 24 113
e 25 26
e 25 27
e 25 28
e 25 32
e 25 36
e 25 40
e 25 44
e 25 49
e 25 53
e 25 59
e 25 63
e 25 70
e 25 74
e 25 82
e 25 86
e 25 95
e 25 99
e 25 109
e 25 113
e 26 27
e 26 28
e 26 33
e 26 36
e 26 41
e 26 44
e 26 50
e 26 53
e 26 60
e 26 63
e 26 71
e 26 74
e 26 83
e 26 86
e 26 96
e 26 99
e 26 110
e 26 113
e 27 28
e 27 34
e 27 36
e 27 42
e 27 44
e 27 51
e 27 53
e 27 61
e 27 63
e 27 72
e 27 74
e 27 84
e 27 86
e 27 97
e 27 99
e 27 111
e 27 113
e 28 35
e 28 36
e 28 43
e 28 44
e 28 52
e 28 53
e 28 62
e 28 63
e 28 73
e 28 74
e 28 85
e 28 86
e 28 98
e 28 99
e 28 112
e 28 113
e 29 30
e 29 31
e 29 32
e 29 33
e 29 34
e 29 35
e 29 36
e 29 37
e 29 45
e 29 46
e 29 54
e 29 56
e 29 64
e 29 67
e 29 75
e 29 79
e 29 87
e 29 92
e 29 100
e 29 106
e 29 114
e 30 31
e 30 32
e 30 33
e 30 34
e 30 35
e 30 36
e 30 38
e 30 45
e 30 47
e 30 54
e 30 57
e 30 64
e 30 68
e 30 75
e 30 80
e 30 87
e 30 93
e 30 100
e 30 107
e 30 114
e 31 32
e 31 33
e 31 34
e 31 35
e 31 36
e 31 39
e 31 45
e 31 48
e 31 54
e 31 58
e 31 64
e 31 69
e 31 75
e 31 81
e 31 87
e 31 94
e 31 100
e 31 108
e 31 114
e 32 33
e 32 34
e 32 35
e 32 36
e 32 40
e 32 45
e 32 49
e 32 54
e 32 59
e 32 64
e 32 70
e 32 75
e 32 82
e 32 87
e 32 95
e 32 100
e 32 109
e 32 114
e 33 34
e 33 35
e 33 36
e 33 41
e 33 45
e 33 50
e 33 54
e 33 60
e 33 64
e 33 71
e 33 75
e 33 83
e 33 87
e 33 96
e 33 100
e 33 110
e 33 114
e 34 35
e 34 36
e 34 42
e 34 45
e 34 51
e 34 54
e 34 61
e 34 64
e 34 72
e 34 75
e 34 84
e 34 87
e 34 97
e 34 100
e 34 111
e 34 114
e 35 36
e 35 43
e 35 45
e 35 52
e 35 54
e 35 62
e 35 64
e 35 73
e 35 75
e 35 85
e 35 87
e 35 98
e 35 100
e 35 112
e 35 114
e 36 44
e 36 45
e 36 53
e 36 54
e 36 63
e 36 64
e 36 74
e 36 75
e 36 86
e 36 87
e 36 99
e 36 100
e 36 113
e 36 114
e 37 38
e 37 39
e 37 40
e 37 41
e 37 42
e 37 43
e 37 44
e 37 45
e 37 46
e 37 55
e 37 56
e 37 65
e 37 67
e 37 76
e 37 79
e 37 88
e 37 92
e 37 101
e 37 106
e 37 115
e 38 39
e 38 40
e 38 41
e 38 42
e 38 43
e 38 44
e 38 45
e 38 47
e 38 55
e 38 57
e 38 65
e 38 68
e 38 76
e 38 80
e 38 88
e 38 93
e 38 101
e 38 107
e 38 115
e 39 40
e 39 41
e 39 42
e 39 43
e 39 44
e 39 45
e 39 48
e 39 55
e 39 58
e 39 65
e 39 69
e 39 76
e 39 81
e 39 88
e 39 94
e 39 101
e 39 108
e 39 115
e 40 41
e 40 42
e 40 43
e 40 44
e 40 45
e 40 49
e 40 55
e 40 59
e 40 65
e 40 70
e 40 76
e 40 82
e 40 88
e 40 95
e 40 101
e 40 109
e 40 115
e 41 42
e 41 43
e 41 44
e 41 45
e 41 50
e 41 55
e 41 60
e 41 65
e 41 71
e 41 76
e 41 83
e 41 88
e 41 96
e 41 101
e 41 110
e 41 115
e 42 43
e 42 44
e 42 45
e 42 51
e 42 55
e 42 61
e 42 65
e 42 72
e 42 76
e 42 84
e 42 88
e 42 97
e 42 101
e 42 111
e 42 115
e 43 44
e 43 45
e 43 52
e 43 55
e 43 62
e 43 65
e 43 73
e 43 76
e 43 85
e 43 88
e 43 98
e 43 101
e 43 112
e 43 115
e 44 45
e 44 53
e 44 55
e 44 63
e 44 65
e 44 74
e 44 76
e 44 86
e 44 88
e 44 99
e 44 101
e 44 113
e 44 115
e 45 54
e 45 55
e 45 64
e 45 65
e 45 75
e 45 76
e 45 87
e 45 88
e 45 100
e 45 101
e 45 114
e 45 115
e 46 47
e 46 48
e 46 49
e 46 50
e 46 51
e 46 52
e 46 53
e 46 54
e 46 55
e 46 56
e 46 66
e 46 67
e 46 77
e 46 79
e 46 89
e 46 92
e 46 102
e 46 106
e 46 116
e 47 48
e 47 49
e 47 50
e 47 51
e 47 52
e 47 53
e 47 54
e 47 55
e 47 57
e 47 66
e 47 68
e 47 77
e 47 80
e 47 89
e 47 93
e 47 102
e 47 107
e 47 116
e 48 49
e 48 50
e 48 51
e 48 52
e 48 53
e 48 54
e 48 55
e 48 58
e 48 66
e 48 69
e 48 77
e 48 81
e 48 89
e 48 94
e 48 102
e 48 108
e 48 116
e 49 50
e 49 51
e 49 52
e 49 53
e 49 54
e 49 55
e 49 59
e 49 66
e 49 70
e 49 77
e 49 82
e 49 89
e 49 95
e 49 102
e 49 109
e 49 116
e 50 51
e 50 52
e 50 53
e 50 54
e 50 55
e 50 60
e 50 66
e 50 71
e 50 77
e 50 83
e 50 89
e 50 96
e 50 102
e 50 110
e 50 116
e 51 52
e 51 53
e 51 54
e 51 55
e 51 61
e 51 66
e 51 72
e 51 77
e 51 84
e 51 89
e 51 97
e 51 102
e 51 111
e 51 116
e 52 53
e 52 54
e 52 55
e 52 62
e 52 66
e 52 73
e 52 77
e 52 85
e 52 89
e 52 98
e 52 102
e 52 112
e 52 116
e 53 54
e 53 55
e 53 63
e 53 66
e 53 74
e 53 77
e 53 86
e 53 89
e 53 99
e 53 102
e 53 113
e 53 116
e 54 55
e 54 64
e 54 66
e 54 75
e 54 77
e 54 87
e 54 89
e 54 100
e 54 102
e 54 114
e 54 116
e 55 65
e 55 66
e 55 76
e 55 77
e 55 88
e 55 89
e 55 101
e 55 102
e 55 115
e 55 116
e 56 57
e 56 58
e 56 59
e 56 60
e 56 61
e 56 62
e 56 63
e 56 64
e 56 65
e 56 66
e 56 67
e 56 78
e 56 79
e 56 90
e 56 92
e 56 103
e 56 106
e 56 117
e 57 58
e 57 59
e 57 60
e 57 61
e 57 62
e 57 63
e 57 64
e 57 65
e 57 66
e 57 68
e 57 78
e 57 80
e 57 90
e 57 93
e 57 103
e 57 107
e 57 117
e 58 59
e 58 60
e 58 61
e 58 62
e 58 63
e 58 64
e 58 65
e 58 66
e 58 69
e 58 78
e 58 81
e 58 90
e 58 94
e 58 103
e 58 108
e 58 117
e 59 60
e 59 61
e 59 62
e 59 63
e 59 64
e 59 65
e 59 66
e 59 70
e 59 78
e 59 82
e 59 90
e 59 95
e 59 103
e 59 109
e 59 117
e 60 61
e 60 62
e 60 63
e 60 64
e 60 65
e 60 66
e 60 71
e 60 78
e 60 83
e 60 90
e 60 96
e 60 103
e 60 110
e 60 117
e 61 62
e 61 63
e 61 64
e 61 65
e 61 66
e 61 72
e 61 78
e 61 84
e 61 90
e 61 97
e 61 103
e 61 111
e 61 117
e 62 63
e 62 64
e 62 65
e 62 66
e 62 73
e 62 78
e 62 85
e 62 90
e 62 98
e 62 103
e 62 112
e 62 117
e 63 64
e 63 65
e 63 66
e 63 74
e 63 78
e 63 86
e 63 90
e 63 99
e 63 103
e 63 113
e 63 117
e 64 65
e 64 66
e 64 75
e 64 78
e 64 87
e 64 90
e 64 100
e 64 103
e 64 114
e 64 117
e 65 66
e 65 76
e 65 78
e 65 88
e 65 90
e 65 101
e 65 103
e 65 115
e 65 117
e 66 77
e 66 78
e 66 89
e 66 90
e 66 102
e 66 103
e 66 116
e 66 117
e 67 68
e 67 69
e 67 70
e 67 71
e 67 72
e 67 73
e 67 74
e 67 75
e 67 76
e 67 77
e 67 78
e 67 79
e 67 91
e 67 92
e 67 104
e 67 106
e 67 118
e 68 69
e 68 70
e 68 71
e 68 72
e 68 73
e 68 74
e 68 75
e 68 76
e 68 77
e 68 78
e 68 80
e 68 91
e 68 93
e 68 104
e 68 107
e 68 118
e 69 70
e 69 71
e 69 72
e 69 73
e 69 74
e 69 75
e 69 76
e 69 77
e 69 78
e 69 81
e 69 91
e 69 94
e 69 104
e 69 108
e 69 118
e 70 71
e 70 72
e 70 73
e 70 74
e 70 75
e 70 76
e 70 77
e 70 78
e 70 82
e 70 91
e 70 95
e 70 104
e 70 109
e 70 118
e 71 72
e 71 73
e 71 74
e 71 75
e 71 76
e 71 77
e 71 78
e 71 83
e 71 91
e 71 96
e 71 104
e 71 110
e 71 118
e 72 73
e 72 74
e 72 75
e 72 76
e 72 77
e 72 78
e 72 84
e 72 91
e 72 97
e 72 104
e 72 111
e 72 118
e 73 74
e 73 75
e 73 76
e 73 77
e 73 78
e 73 85
e 73 91
e 73 98
e 73 104
e 73 112
e 73 118
e 74 75
e 74 76
e 74 77
e 74 78
e 74 86
e 74 91
e 74 99
e 74 104
e 74 113
e 74 118
e 75 76
e 75 77
e 75 78
e 75 87
e 75 91
e 75 100
e 75 104
e 75 114
e 75 118
e 76 77
e 76 78
e 76 88
e 76 91
e 76 101
e 76 104
e 76 115
e 76 118
e 77 78
e 77 89
e 77 91
e 77 102
e 77 104
e 77 116
e 77 118
e 78 90
e 78 91
e 78 103
e 78 104
e 78 117
e 78 118
e 79 80
e 79 81
e 79 82
e 79 83
e 79 84
e 79 85
e 79 86
e 79 87
e 79 88
e 79 89
e 79 90
e 79 91
e 79 92
e 79 105
e 79 106
e 79 119
e 80 81
e 80 82
e 80 83
e 80 84
e 80 85
e 80 86
e 80 87
e 80 88
e 80 89
e 80 90
e 80 91
e 80 93
e 80 105
e 80 107
e 80 119
e 81 82
e 81 83
e 81 84
e 81 85
e 81 86
e 81 87
e 81 88
e 81 89
e 81 90
e 81 91
e 81 94
e 81 105
e 81 108
e 81 119
e 82 83
e 82 84
e 82 85
e 82 86
e 82 87
e 82 88
e 82 89
e 82 90
e 82 91
e 82 95
e 82 105
e 82 109
e 82 119
e 83 84
e 83 85
e 83 86
e 83 87
e 83 88
e 83 89
e 83 90
e 83 91
e 83 96
e 83 105
e 83 110
e 83 119
e 84 85
e 84 86
e 84 87
e 84 88
e 84 89
e 84 90
e 84 91
e 84 97
e 84 105
e 84 111
e 84 119
e 85 86
e 85 87
e 85 88
e 85 89
e 85 90
e 85 91
e 85 98
e 85 105
e 85 112
e 85 119
e 86 87
e 86 88
e 86 89
e 86 90
e 86 91
e 86 99
e 86 105
e 86 113
e 86 119
e 87 88
e 87 89
e 87 90
e 87 91
e 87 100
e 87 105
e 87 114
e 87 119
e 88 89
e 88 90
e 88 91
e 88 101
e 88 105
e 88 115
e 88 119
e 89 90
e 89 91
e 89 102
e 89 105
e 89 116
e 89 119
e 90 91
e 90 103
e 90 105
e 90 117
e 90 119
e 91 104
e 91 105
e 91 118
e 91 119
e 92 93
e 92 94
e 92 95
e 92 96
e 92 97
e 92 98
e 92 99
e 92 100
e 92 101
e 92 102
e 92 103
e 92 104
e 92 105
e 92 106
e 92 120
e 93 94
e 93 95
e 93 96
e 93 97
e 93 98
e 93 99
e 93 100
e 93 101
e 93 102
e 93 103
e 93 104
e 93 105
e 93 107
e 93 120
e 94 95
e 94 96
e 94 97
e 94 98
e 94 99
e 94 100
e 94 101
e 94 102
e 94 103
e 94 104
e 94 105
e 94 108
e 94 120
e 95 96
e 95 97
e 95 98
e 95 99
e 95 100
e 95 101
e 95 102
e 95 103
e 95 104
e 95 105
e 95 109
e 95 120
e 96 97
e 96 98
e 96 99
e 96 100
e 96 101
e 96 102
e 96 103
e 96 104
e 96 105
e 96 110
e 96 120
e 97 98
e 97 99
e 97 100
e 97 101
e 97 102
e 97 103
e 97 104
e 97 105
e 97 111
e 97 120
e 98 99
e 98 100
e 98 101
e 98 102
e 98 103
e 98 104
e 98 105
e 98 112
e 98 120
e 99 100
e 99 101
e 99 102
e 99 103
e 99 104
e 99 105
e 99 113
e 99 120
e 100 101
e 100 102
e 100 103
e 100 104
e 100 105
e 100 114
e 100 120
e 101 102
e 101 103
e 101 104
e 101 105
e 101 115
e 101 120
e 102 103
e 102 104
e 102 105
e 102 116
e 102 120
e 103 104
e 103 105
e 103 117
e 103 120
e 104 105
e 104 118
e 104 120
e 105 119
e 105 120
e 106 107
e 106 108
e 106 109
e 106 110
e 106 111
e 106 112
e 106 113
e 106 114
e 106 115
e 106 116
e 106 117
e 106 118
e 106 119
e 106 120
e 107 108
e 107 109
e 107 110
e 107 111
e 107 112
e 107 113
e 107 114
e 107 115
e 107 116
e 107 117
e 107 118
e 107 119
e 107 120
e 108 109
e 108 110
e 108 111
e 108 112
e 108 113
e 108 114
e 108 115
e 108 116
e 108 117
e 108 118
e 108 119
e 108 120
e 109 110
e 109 111
e 109 112
e 109 113
e 109 114
e 109 115
e 109 116
e 109 117
e 109 118
e 109 119
e 109 120
e 110 111
e 110 112
e 110 113
e 110 114
e 110 115
e 110 116
e 110 117
e 110 118
e 110 119
e 110 120
e 111 112
e 111 113
e 111 114
e 111 115
e 111 116
e 111 117
e 111 118
e 111 119
e 111 120
e 112 113
e 112 114
e 112 115
e 112 116
e 112 117
e 112 118
e 112 119
e 112 120
e 113 114
e 113 115
e 113 116
e 113 117
e 113 118
e 113 119
e 113 120
e 114 115
e 114 116
e 114 117
e 114 118
e 114 119
e 114 120
e 115 116
e 115 117
e 115 118
e 115 119
e 115 120
e 116 117
e 116 118
e 116 119
e 116 120
e 117 118
e 117 119
e 117 120
e 118 119
e 118 120
e 119 120

